(set-info :smt-lib-version 2.6)
(set-logic QF_ALIA)
(set-info :notes "Adapted for Array Sum evaluation.
Base file: qlock.induction.15.smt2")
(set-info :source |
Unbounded version of the queue lock algorithm.
|)
(set-info :category "industrial")
(declare-fun x_0 () (Array Int Int))
(declare-fun x_1 () Int)
(declare-fun x_2 () Int)
(declare-fun x_3 () (Array Int Int))
(declare-fun x_4 () (Array Int Int))
(declare-fun x_5 () (Array Int Int))
(declare-fun x_6 () (Array Int Int))
(declare-fun x_7 () (Array Int Int))
(declare-fun x_8 () (Array Int Int))
(declare-fun x_9 () (Array Int Int))
(declare-fun x_10 () (Array Int Int))
(declare-fun x_11 () (Array Int Int))
(declare-fun x_12 () (Array Int Int))
(declare-fun x_13 () (Array Int Int))
(declare-fun x_14 () (Array Int Int))
(declare-fun x_15 () (Array Int Int))
(declare-fun x_16 () (Array Int Int))
(declare-fun x_17 () (Array Int Int))
(declare-fun x_18 () Int)
(declare-fun x_19 () Int)
(declare-fun x_20 () (Array Int Int))
(declare-fun x_21 () Int)
(declare-fun x_22 () Bool)
(declare-fun x_23 () Bool)
(declare-fun x_24 () Int)
(declare-fun x_25 () Int)
(declare-fun x_26 () Int)
(declare-fun x_27 () Int)
(declare-fun x_28 () Int)
(declare-fun x_29 () Int)
(declare-fun x_30 () Int)
(declare-fun x_31 () Int)
(declare-fun x_32 () Int)
(declare-fun x_33 () Int)
(declare-fun x_34 () Int)
(declare-fun x_35 () Int)
(declare-fun x_36 () (Array Int Int))
(declare-fun x_37 () Int)
(declare-fun x_38 () Bool)
(declare-fun x_39 () Int)
(declare-fun x_40 () Int)
(declare-fun x_41 () Int)
(declare-fun x_42 () Int)
(declare-fun x_43 () Int)
(declare-fun x_44 () Int)
(declare-fun x_45 () Int)
(declare-fun x_46 () Int)
(declare-fun x_47 () Int)
(declare-fun x_48 () Int)
(declare-fun x_49 () (Array Int Int))
(declare-fun x_50 () Int)
(declare-fun x_51 () Bool)
(declare-fun x_52 () Int)
(declare-fun x_53 () Int)
(declare-fun x_54 () Int)
(declare-fun x_55 () Int)
(declare-fun x_56 () Int)
(declare-fun x_57 () Int)
(declare-fun x_58 () Int)
(declare-fun x_59 () Int)
(declare-fun x_60 () Int)
(declare-fun x_61 () Int)
(declare-fun x_62 () (Array Int Int))
(declare-fun x_63 () Int)
(declare-fun x_64 () Bool)
(declare-fun x_65 () Int)
(declare-fun x_66 () Int)
(declare-fun x_67 () Int)
(declare-fun x_68 () Int)
(declare-fun x_69 () Int)
(declare-fun x_70 () Int)
(declare-fun x_71 () Int)
(declare-fun x_72 () Int)
(declare-fun x_73 () Int)
(declare-fun x_74 () Int)
(declare-fun x_75 () (Array Int Int))
(declare-fun x_76 () Int)
(declare-fun x_77 () Bool)
(declare-fun x_78 () Int)
(declare-fun x_79 () Int)
(declare-fun x_80 () Int)
(declare-fun x_81 () Int)
(declare-fun x_82 () Int)
(declare-fun x_83 () Int)
(declare-fun x_84 () Int)
(declare-fun x_85 () Int)
(declare-fun x_86 () Int)
(declare-fun x_87 () Int)
(declare-fun x_88 () (Array Int Int))
(declare-fun x_89 () Int)
(declare-fun x_90 () Bool)
(declare-fun x_91 () Int)
(declare-fun x_92 () Int)
(declare-fun x_93 () Int)
(declare-fun x_94 () Int)
(declare-fun x_95 () Int)
(declare-fun x_96 () Int)
(declare-fun x_97 () Int)
(declare-fun x_98 () Int)
(declare-fun x_99 () Int)
(declare-fun x_100 () Int)
(declare-fun x_101 () (Array Int Int))
(declare-fun x_102 () Int)
(declare-fun x_103 () Bool)
(declare-fun x_104 () Int)
(declare-fun x_105 () Int)
(declare-fun x_106 () Int)
(declare-fun x_107 () Int)
(declare-fun x_108 () Int)
(declare-fun x_109 () Int)
(declare-fun x_110 () Int)
(declare-fun x_111 () Int)
(declare-fun x_112 () Int)
(declare-fun x_113 () Int)
(declare-fun x_114 () (Array Int Int))
(declare-fun x_115 () Int)
(declare-fun x_116 () Bool)
(declare-fun x_117 () Int)
(declare-fun x_118 () Int)
(declare-fun x_119 () Int)
(declare-fun x_120 () Int)
(declare-fun x_121 () Int)
(declare-fun x_122 () Int)
(declare-fun x_123 () Int)
(declare-fun x_124 () Int)
(declare-fun x_125 () Int)
(declare-fun x_126 () Int)
(declare-fun x_127 () (Array Int Int))
(declare-fun x_128 () Int)
(declare-fun x_129 () Bool)
(declare-fun x_130 () Int)
(declare-fun x_131 () Int)
(declare-fun x_132 () Int)
(declare-fun x_133 () Int)
(declare-fun x_134 () Int)
(declare-fun x_135 () Int)
(declare-fun x_136 () Int)
(declare-fun x_137 () Int)
(declare-fun x_138 () Int)
(declare-fun x_139 () Int)
(declare-fun x_140 () (Array Int Int))
(declare-fun x_141 () Int)
(declare-fun x_142 () Bool)
(declare-fun x_143 () Int)
(declare-fun x_144 () Int)
(declare-fun x_145 () Int)
(declare-fun x_146 () Int)
(declare-fun x_147 () Int)
(declare-fun x_148 () Int)
(declare-fun x_149 () Int)
(declare-fun x_150 () Int)
(declare-fun x_151 () Int)
(declare-fun x_152 () Int)
(declare-fun x_153 () (Array Int Int))
(declare-fun x_154 () Int)
(declare-fun x_155 () Bool)
(declare-fun x_156 () Int)
(declare-fun x_157 () Int)
(declare-fun x_158 () Int)
(declare-fun x_159 () Int)
(declare-fun x_160 () Int)
(declare-fun x_161 () Int)
(declare-fun x_162 () Int)
(declare-fun x_163 () Int)
(declare-fun x_164 () Int)
(declare-fun x_165 () Int)
(declare-fun x_166 () (Array Int Int))
(declare-fun x_167 () Int)
(declare-fun x_168 () Bool)
(declare-fun x_169 () Int)
(declare-fun x_170 () Int)
(declare-fun x_171 () Int)
(declare-fun x_172 () Int)
(declare-fun x_173 () Int)
(declare-fun x_174 () Int)
(declare-fun x_175 () Int)
(declare-fun x_176 () Int)
(declare-fun x_177 () Int)
(declare-fun x_178 () Int)
(declare-fun x_179 () (Array Int Int))
(declare-fun x_180 () Int)
(declare-fun x_181 () Bool)
(declare-fun x_182 () Int)
(declare-fun x_183 () Int)
(declare-fun x_184 () Int)
(declare-fun x_185 () Int)
(declare-fun x_186 () Int)
(declare-fun x_187 () Int)
(declare-fun x_188 () Int)
(declare-fun x_189 () Int)
(declare-fun x_190 () Int)
(declare-fun x_191 () Int)
(declare-fun x_192 () (Array Int Int))
(declare-fun x_193 () Int)
(declare-fun x_194 () Bool)
(declare-fun x_195 () Int)
(declare-fun x_196 () Int)
(declare-fun x_197 () Int)
(declare-fun x_198 () Int)
(declare-fun x_199 () Int)
(declare-fun x_200 () Int)
(declare-fun x_201 () Int)
(declare-fun x_202 () Int)
(declare-fun x_203 () Int)
(declare-fun x_204 () Int)
(declare-fun x_205 () (Array Int Int))
(declare-fun x_206 () Int)
(declare-fun x_207 () Bool)
(declare-fun x_208 () Int)
(declare-fun x_209 () Int)
(declare-fun x_210 () Int)
(declare-fun x_211 () Int)
(declare-fun x_212 () Int)
(declare-fun x_213 () (Array Int Int))
(declare-fun x_214 () Int)
(declare-fun x_215 () Int)
(declare-fun x_216 () Int)
(declare-fun x_217 () Int)
(declare-fun x_218 () Int)
(declare-fun x_219 () Int)
(declare-fun x_220 () Int)
(declare-fun x_221 () Int)
(declare-fun x_222 () Int)
(declare-fun x_223 () Int)
(declare-fun x_224 () Int)
(declare-fun x_225 () Int)
(declare-fun x_226 () Int)
(declare-fun x_227 () Int)
(declare-fun x_228 () Int)
(declare-fun x_229 () Int)
(declare-fun x_230 () Int)
(declare-fun x_231 () Int)
(declare-fun x_232 () Int)
(declare-fun x_233 () Int)
(declare-fun x_234 () Int)
(declare-fun x_235 () Int)
(declare-fun x_236 () Int)
(declare-fun x_237 () Int)
(declare-fun x_238 () Int)
(declare-fun x_239 () Int)
(declare-fun x_240 () Int)
(declare-fun x_241 () Int)
(declare-fun x_242 () Int)
(declare-fun x_243 () Int)
(declare-fun x_244 () Int)
(declare-fun x_245 () Int)
(declare-fun x_246 () Int)
(declare-fun x_247 () Int)
(declare-fun x_248 () Int)
(declare-fun x_249 () Int)
(declare-fun x_250 () Int)
(declare-fun x_251 () Int)
(declare-fun x_252 () Int)
(declare-fun x_253 () Int)
(declare-fun x_254 () Int)
(declare-fun x_255 () Int)
(declare-fun x_256 () Int)
(declare-fun x_257 () Int)
(declare-fun x_258 () Int)
(declare-fun x_259 () Int)
(declare-fun x_260 () Int)
(declare-fun x_261 () Int)
(declare-fun x_262 () Int)
(declare-fun x_263 () Int)
(declare-fun x_264 () Int)
(declare-fun x_265 () Int)
(declare-fun x_266 () Int)
(declare-fun x_267 () Int)
(declare-fun x_268 () Int)
(declare-fun x_269 () Int)
(declare-fun x_270 () Int)
(declare-fun x_271 () Int)
(declare-fun x_272 () Int)
(declare-fun x_273 () Int)
(declare-fun x_274 () Int)
(declare-fun x_275 () Int)
(declare-fun x_276 () Int)
(declare-fun x_277 () Int)
(declare-fun x_278 () Int)
(declare-fun x_279 () Int)
(declare-fun x_280 () Int)
(declare-fun x_281 () Int)
(declare-fun x_282 () Int)
(declare-fun x_283 () Int)
(declare-fun x_284 () Int)
(declare-fun x_285 () Int)
(declare-fun x_286 () Int)
(declare-fun x_287 () Int)
(declare-fun x_288 () Int)
(declare-fun x_289 () Int)
(declare-fun x_290 () Int)
(declare-fun x_291 () Int)
(declare-fun x_292 () Int)
(declare-fun x_293 () Int)
(declare-fun x_294 () Int)
(declare-fun x_295 () Int)
(declare-fun x_296 () Int)
(declare-fun x_297 () Int)
(declare-fun x_298 () Int)
(declare-fun x_299 () Int)
(declare-fun x_300 () Int)
(declare-fun x_301 () Int)
(declare-fun x_302 () Int)
(declare-fun x_303 () Int)
(declare-fun x_304 () Int)
(declare-fun x_305 () Int)
(declare-fun x_306 () Int)
(declare-fun x_307 () Int)
(declare-fun x_308 () Int)
(declare-fun x_309 () Int)
(assert (let ((?v_73 (= x_20 x_17)) (?v_70 (= x_21 x_18)) (?v_71 (= x_22 x_23)) (?v_74 (= x_24 x_25)) (?v_72 (not (<= x_25 x_18))) (?v_68 (= x_36 x_20)) (?v_65 (= x_37 x_21)) (?v_66 (= x_38 x_22)) (?v_69 (= x_39 x_24)) (?v_67 (not (<= x_24 x_21))) (?v_63 (= x_49 x_36)) (?v_60 (= x_50 x_37)) (?v_61 (= x_51 x_38)) (?v_64 (= x_52 x_39)) (?v_62 (not (<= x_39 x_37))) (?v_58 (= x_62 x_49)) (?v_55 (= x_63 x_50)) (?v_56 (= x_64 x_51)) (?v_59 (= x_65 x_52)) (?v_57 (not (<= x_52 x_50))) (?v_53 (= x_75 x_62)) (?v_50 (= x_76 x_63)) (?v_51 (= x_77 x_64)) (?v_54 (= x_78 x_65)) (?v_52 (not (<= x_65 x_63))) (?v_48 (= x_88 x_75)) (?v_45 (= x_89 x_76)) (?v_46 (= x_90 x_77)) (?v_49 (= x_91 x_78)) (?v_47 (not (<= x_78 x_76))) (?v_43 (= x_101 x_88)) (?v_40 (= x_102 x_89)) (?v_41 (= x_103 x_90)) (?v_44 (= x_104 x_91)) (?v_42 (not (<= x_91 x_89))) (?v_38 (= x_114 x_101)) (?v_35 (= x_115 x_102)) (?v_36 (= x_116 x_103)) (?v_39 (= x_117 x_104)) (?v_37 (not (<= x_104 x_102))) (?v_33 (= x_127 x_114)) (?v_30 (= x_128 x_115)) (?v_31 (= x_129 x_116)) (?v_34 (= x_130 x_117)) (?v_32 (not (<= x_117 x_115))) (?v_28 (= x_140 x_127)) (?v_25 (= x_141 x_128)) (?v_26 (= x_142 x_129)) (?v_29 (= x_143 x_130)) (?v_27 (not (<= x_130 x_128))) (?v_23 (= x_153 x_140)) (?v_20 (= x_154 x_141)) (?v_21 (= x_155 x_142)) (?v_24 (= x_156 x_143)) (?v_22 (not (<= x_143 x_141))) (?v_18 (= x_166 x_153)) (?v_15 (= x_167 x_154)) (?v_16 (= x_168 x_155)) (?v_19 (= x_169 x_156)) (?v_17 (not (<= x_156 x_154))) (?v_13 (= x_179 x_166)) (?v_10 (= x_180 x_167)) (?v_11 (= x_181 x_168)) (?v_14 (= x_182 x_169)) (?v_12 (not (<= x_169 x_167))) (?v_8 (= x_192 x_179)) (?v_5 (= x_193 x_180)) (?v_6 (= x_194 x_181)) (?v_9 (= x_195 x_182)) (?v_7 (not (<= x_182 x_180))) (?v_3 (= x_205 x_192)) (?v_0 (= x_206 x_193)) (?v_1 (= x_207 x_194)) (?v_4 (= x_208 x_195)) (?v_2 (not (<= x_195 x_193)))) (and (and (and (and (and (and (and (and (and (and (and (and (and (and (and (and (and (and (and (and (and (and (and (and (and (and (and (and (and (and (and (and (and (and (and (and (and (and (and (and (and (and (and (and (and (and (and (and (and (and (and (and (and (and (and (and (and (and (and (and (and (and (and (and (and (and (and (and (and (and (and (and (and (and (and (and (and (and (and (and (and (and (and (and (and (and (and (and (and (and (and (and (and (and (and (and (and (and (and (and (and (and (and (and (and (and (and (and (and (and (and (and (and (and (and (and (and (and (and (and (and (and (and (and (and (and (and (and (and (and (and (and (and (and (and (and (and (and (and (and (and (and (and (and (and (and (and (and (and (and (and (and (and (and (not (= x_2 x_1)) (= x_218 (select x_16 x_1))) (= x_219 (select x_16 x_2))) (or (not (= x_218 3)) (not (= x_219 3)))) (= x_220 (select x_15 x_1))) (= x_221 (select x_15 x_2))) (or (not (= x_220 3)) (not (= x_221 3)))) (= x_222 (select x_14 x_1))) (= x_223 (select x_14 x_2))) (or (not (= x_222 3)) (not (= x_223 3)))) (= x_224 (select x_13 x_1))) (= x_225 (select x_13 x_2))) (or (not (= x_224 3)) (not (= x_225 3)))) (= x_226 (select x_12 x_1))) (= x_227 (select x_12 x_2))) (or (not (= x_226 3)) (not (= x_227 3)))) (= x_228 (select x_11 x_1))) (= x_229 (select x_11 x_2))) (or (not (= x_228 3)) (not (= x_229 3)))) (= x_230 (select x_10 x_1))) (= x_231 (select x_10 x_2))) (or (not (= x_230 3)) (not (= x_231 3)))) (= x_232 (select x_9 x_1))) (= x_233 (select x_9 x_2))) (or (not (= x_232 3)) (not (= x_233 3)))) (= x_234 (select x_8 x_1))) (= x_235 (select x_8 x_2))) (or (not (= x_234 3)) (not (= x_235 3)))) (= x_236 (select x_7 x_1))) (= x_237 (select x_7 x_2))) (or (not (= x_236 3)) (not (= x_237 3)))) (= x_238 (select x_6 x_1))) (= x_239 (select x_6 x_2))) (or (not (= x_238 3)) (not (= x_239 3)))) (= x_240 (select x_5 x_1))) (= x_241 (select x_5 x_2))) (or (not (= x_240 3)) (not (= x_241 3)))) (= x_242 (select x_4 x_1))) (= x_243 (select x_4 x_2))) (or (not (= x_242 3)) (not (= x_243 3)))) (= x_244 (select x_3 x_1))) (= x_245 (select x_3 x_2))) (or (not (= x_244 3)) (not (= x_245 3)))) (= x_246 (select x_0 x_1))) (= x_247 (select x_0 x_2))) (or (not (= x_246 3)) (not (= x_247 3)))) (= x_248 (select x_17 x_18))) (= x_19 x_248)) (= x_249 (select x_20 x_21))) (= x_35 x_249)) (= x_250 (select x_36 x_37))) (= x_48 x_250)) (= x_251 (select x_49 x_50))) (= x_61 x_251)) (= x_252 (select x_62 x_63))) (= x_74 x_252)) (= x_253 (select x_75 x_76))) (= x_87 x_253)) (= x_254 (select x_88 x_89))) (= x_100 x_254)) (= x_255 (select x_101 x_102))) (= x_113 x_255)) (= x_256 (select x_114 x_115))) (= x_126 x_256)) (= x_257 (select x_127 x_128))) (= x_139 x_257)) (= x_258 (select x_140 x_141))) (= x_152 x_258)) (= x_259 (select x_153 x_154))) (= x_165 x_259)) (= x_260 (select x_166 x_167))) (= x_178 x_260)) (= x_261 (select x_179 x_180))) (= x_191 x_261)) (= x_262 (select x_192 x_193))) (= x_204 x_262)) (= x_209 (+ x_196 1))) (= x_263 (select x_16 x_211))) (= x_264 (select x_16 x_214))) (= x_265 (select x_16 x_216))) (or (or (or (and (and (and (and (and (and (and (= x_210 0) (= x_208 (+ x_195 1))) ?v_0) ?v_1) (= x_212 x_211)) (= x_263 1)) (= x_213 (store x_16 x_211 2))) (= x_205 (store x_192 x_195 x_211))) (and (and (and (and (and (and (and (and (and (= x_210 1) ?v_2) ?v_0) ?v_1) ?v_3) ?v_4) (= x_215 x_214)) (= x_264 2)) (= x_204 x_214)) (= x_213 (store x_16 x_214 3)))) (and (and (and (and (and (and (and (and (and (= x_210 2) ?v_2) (= x_206 (+ x_193 1))) ?v_1) ?v_3) ?v_4) (= x_217 x_216)) (= x_265 3)) (or (not (<= x_196 12)) (= x_204 x_216))) (= x_213 (store x_16 x_216 1)))) (and (and (and (and (and (= x_210 3) ?v_3) ?v_0) ?v_1) (= x_213 x_16)) ?v_4))) (= x_196 (+ x_183 1))) (= x_266 (select x_15 x_198))) (= x_267 (select x_15 x_200))) (= x_268 (select x_15 x_202))) (or (or (or (and (and (and (and (and (and (and (= x_197 0) (= x_195 (+ x_182 1))) ?v_5) ?v_6) (= x_199 x_198)) (= x_266 1)) (= x_16 (store x_15 x_198 2))) (= x_192 (store x_179 x_182 x_198))) (and (and (and (and (and (and (and (and (and (= x_197 1) ?v_7) ?v_5) ?v_6) ?v_8) ?v_9) (= x_201 x_200)) (= x_267 2)) (= x_191 x_200)) (= x_16 (store x_15 x_200 3)))) (and (and (and (and (and (and (and (and (and (= x_197 2) ?v_7) (= x_193 (+ x_180 1))) ?v_6) ?v_8) ?v_9) (= x_203 x_202)) (= x_268 3)) (or (not (<= x_183 12)) (= x_191 x_202))) (= x_16 (store x_15 x_202 1)))) (and (and (and (and (and (= x_197 3) ?v_8) ?v_5) ?v_6) (= x_16 x_15)) ?v_9))) (= x_183 (+ x_170 1))) (= x_269 (select x_14 x_185))) (= x_270 (select x_14 x_187))) (= x_271 (select x_14 x_189))) (or (or (or (and (and (and (and (and (and (and (= x_184 0) (= x_182 (+ x_169 1))) ?v_10) ?v_11) (= x_186 x_185)) (= x_269 1)) (= x_15 (store x_14 x_185 2))) (= x_179 (store x_166 x_169 x_185))) (and (and (and (and (and (and (and (and (and (= x_184 1) ?v_12) ?v_10) ?v_11) ?v_13) ?v_14) (= x_188 x_187)) (= x_270 2)) (= x_178 x_187)) (= x_15 (store x_14 x_187 3)))) (and (and (and (and (and (and (and (and (and (= x_184 2) ?v_12) (= x_180 (+ x_167 1))) ?v_11) ?v_13) ?v_14) (= x_190 x_189)) (= x_271 3)) (or (not (<= x_170 12)) (= x_178 x_189))) (= x_15 (store x_14 x_189 1)))) (and (and (and (and (and (= x_184 3) ?v_13) ?v_10) ?v_11) (= x_15 x_14)) ?v_14))) (= x_170 (+ x_157 1))) (= x_272 (select x_13 x_172))) (= x_273 (select x_13 x_174))) (= x_274 (select x_13 x_176))) (or (or (or (and (and (and (and (and (and (and (= x_171 0) (= x_169 (+ x_156 1))) ?v_15) ?v_16) (= x_173 x_172)) (= x_272 1)) (= x_14 (store x_13 x_172 2))) (= x_166 (store x_153 x_156 x_172))) (and (and (and (and (and (and (and (and (and (= x_171 1) ?v_17) ?v_15) ?v_16) ?v_18) ?v_19) (= x_175 x_174)) (= x_273 2)) (= x_165 x_174)) (= x_14 (store x_13 x_174 3)))) (and (and (and (and (and (and (and (and (and (= x_171 2) ?v_17) (= x_167 (+ x_154 1))) ?v_16) ?v_18) ?v_19) (= x_177 x_176)) (= x_274 3)) (or (not (<= x_157 12)) (= x_165 x_176))) (= x_14 (store x_13 x_176 1)))) (and (and (and (and (and (= x_171 3) ?v_18) ?v_15) ?v_16) (= x_14 x_13)) ?v_19))) (= x_157 (+ x_144 1))) (= x_275 (select x_12 x_159))) (= x_276 (select x_12 x_161))) (= x_277 (select x_12 x_163))) (or (or (or (and (and (and (and (and (and (and (= x_158 0) (= x_156 (+ x_143 1))) ?v_20) ?v_21) (= x_160 x_159)) (= x_275 1)) (= x_13 (store x_12 x_159 2))) (= x_153 (store x_140 x_143 x_159))) (and (and (and (and (and (and (and (and (and (= x_158 1) ?v_22) ?v_20) ?v_21) ?v_23) ?v_24) (= x_162 x_161)) (= x_276 2)) (= x_152 x_161)) (= x_13 (store x_12 x_161 3)))) (and (and (and (and (and (and (and (and (and (= x_158 2) ?v_22) (= x_154 (+ x_141 1))) ?v_21) ?v_23) ?v_24) (= x_164 x_163)) (= x_277 3)) (or (not (<= x_144 12)) (= x_152 x_163))) (= x_13 (store x_12 x_163 1)))) (and (and (and (and (and (= x_158 3) ?v_23) ?v_20) ?v_21) (= x_13 x_12)) ?v_24))) (= x_144 (+ x_131 1))) (= x_278 (select x_11 x_146))) (= x_279 (select x_11 x_148))) (= x_280 (select x_11 x_150))) (or (or (or (and (and (and (and (and (and (and (= x_145 0) (= x_143 (+ x_130 1))) ?v_25) ?v_26) (= x_147 x_146)) (= x_278 1)) (= x_12 (store x_11 x_146 2))) (= x_140 (store x_127 x_130 x_146))) (and (and (and (and (and (and (and (and (and (= x_145 1) ?v_27) ?v_25) ?v_26) ?v_28) ?v_29) (= x_149 x_148)) (= x_279 2)) (= x_139 x_148)) (= x_12 (store x_11 x_148 3)))) (and (and (and (and (and (and (and (and (and (= x_145 2) ?v_27) (= x_141 (+ x_128 1))) ?v_26) ?v_28) ?v_29) (= x_151 x_150)) (= x_280 3)) (or (not (<= x_131 12)) (= x_139 x_150))) (= x_12 (store x_11 x_150 1)))) (and (and (and (and (and (= x_145 3) ?v_28) ?v_25) ?v_26) (= x_12 x_11)) ?v_29))) (= x_131 (+ x_118 1))) (= x_281 (select x_10 x_133))) (= x_282 (select x_10 x_135))) (= x_283 (select x_10 x_137))) (or (or (or (and (and (and (and (and (and (and (= x_132 0) (= x_130 (+ x_117 1))) ?v_30) ?v_31) (= x_134 x_133)) (= x_281 1)) (= x_11 (store x_10 x_133 2))) (= x_127 (store x_114 x_117 x_133))) (and (and (and (and (and (and (and (and (and (= x_132 1) ?v_32) ?v_30) ?v_31) ?v_33) ?v_34) (= x_136 x_135)) (= x_282 2)) (= x_126 x_135)) (= x_11 (store x_10 x_135 3)))) (and (and (and (and (and (and (and (and (and (= x_132 2) ?v_32) (= x_128 (+ x_115 1))) ?v_31) ?v_33) ?v_34) (= x_138 x_137)) (= x_283 3)) (or (not (<= x_118 12)) (= x_126 x_137))) (= x_11 (store x_10 x_137 1)))) (and (and (and (and (and (= x_132 3) ?v_33) ?v_30) ?v_31) (= x_11 x_10)) ?v_34))) (= x_118 (+ x_105 1))) (= x_284 (select x_9 x_120))) (= x_285 (select x_9 x_122))) (= x_286 (select x_9 x_124))) (or (or (or (and (and (and (and (and (and (and (= x_119 0) (= x_117 (+ x_104 1))) ?v_35) ?v_36) (= x_121 x_120)) (= x_284 1)) (= x_10 (store x_9 x_120 2))) (= x_114 (store x_101 x_104 x_120))) (and (and (and (and (and (and (and (and (and (= x_119 1) ?v_37) ?v_35) ?v_36) ?v_38) ?v_39) (= x_123 x_122)) (= x_285 2)) (= x_113 x_122)) (= x_10 (store x_9 x_122 3)))) (and (and (and (and (and (and (and (and (and (= x_119 2) ?v_37) (= x_115 (+ x_102 1))) ?v_36) ?v_38) ?v_39) (= x_125 x_124)) (= x_286 3)) (or (not (<= x_105 12)) (= x_113 x_124))) (= x_10 (store x_9 x_124 1)))) (and (and (and (and (and (= x_119 3) ?v_38) ?v_35) ?v_36) (= x_10 x_9)) ?v_39))) (= x_105 (+ x_92 1))) (= x_287 (select x_8 x_107))) (= x_288 (select x_8 x_109))) (= x_289 (select x_8 x_111))) (or (or (or (and (and (and (and (and (and (and (= x_106 0) (= x_104 (+ x_91 1))) ?v_40) ?v_41) (= x_108 x_107)) (= x_287 1)) (= x_9 (store x_8 x_107 2))) (= x_101 (store x_88 x_91 x_107))) (and (and (and (and (and (and (and (and (and (= x_106 1) ?v_42) ?v_40) ?v_41) ?v_43) ?v_44) (= x_110 x_109)) (= x_288 2)) (= x_100 x_109)) (= x_9 (store x_8 x_109 3)))) (and (and (and (and (and (and (and (and (and (= x_106 2) ?v_42) (= x_102 (+ x_89 1))) ?v_41) ?v_43) ?v_44) (= x_112 x_111)) (= x_289 3)) (or (not (<= x_92 12)) (= x_100 x_111))) (= x_9 (store x_8 x_111 1)))) (and (and (and (and (and (= x_106 3) ?v_43) ?v_40) ?v_41) (= x_9 x_8)) ?v_44))) (= x_92 (+ x_79 1))) (= x_290 (select x_7 x_94))) (= x_291 (select x_7 x_96))) (= x_292 (select x_7 x_98))) (or (or (or (and (and (and (and (and (and (and (= x_93 0) (= x_91 (+ x_78 1))) ?v_45) ?v_46) (= x_95 x_94)) (= x_290 1)) (= x_8 (store x_7 x_94 2))) (= x_88 (store x_75 x_78 x_94))) (and (and (and (and (and (and (and (and (and (= x_93 1) ?v_47) ?v_45) ?v_46) ?v_48) ?v_49) (= x_97 x_96)) (= x_291 2)) (= x_87 x_96)) (= x_8 (store x_7 x_96 3)))) (and (and (and (and (and (and (and (and (and (= x_93 2) ?v_47) (= x_89 (+ x_76 1))) ?v_46) ?v_48) ?v_49) (= x_99 x_98)) (= x_292 3)) (or (not (<= x_79 12)) (= x_87 x_98))) (= x_8 (store x_7 x_98 1)))) (and (and (and (and (and (= x_93 3) ?v_48) ?v_45) ?v_46) (= x_8 x_7)) ?v_49))) (= x_79 (+ x_66 1))) (= x_293 (select x_6 x_81))) (= x_294 (select x_6 x_83))) (= x_295 (select x_6 x_85))) (or (or (or (and (and (and (and (and (and (and (= x_80 0) (= x_78 (+ x_65 1))) ?v_50) ?v_51) (= x_82 x_81)) (= x_293 1)) (= x_7 (store x_6 x_81 2))) (= x_75 (store x_62 x_65 x_81))) (and (and (and (and (and (and (and (and (and (= x_80 1) ?v_52) ?v_50) ?v_51) ?v_53) ?v_54) (= x_84 x_83)) (= x_294 2)) (= x_74 x_83)) (= x_7 (store x_6 x_83 3)))) (and (and (and (and (and (and (and (and (and (= x_80 2) ?v_52) (= x_76 (+ x_63 1))) ?v_51) ?v_53) ?v_54) (= x_86 x_85)) (= x_295 3)) (or (not (<= x_66 12)) (= x_74 x_85))) (= x_7 (store x_6 x_85 1)))) (and (and (and (and (and (= x_80 3) ?v_53) ?v_50) ?v_51) (= x_7 x_6)) ?v_54))) (= x_66 (+ x_53 1))) (= x_296 (select x_5 x_68))) (= x_297 (select x_5 x_70))) (= x_298 (select x_5 x_72))) (or (or (or (and (and (and (and (and (and (and (= x_67 0) (= x_65 (+ x_52 1))) ?v_55) ?v_56) (= x_69 x_68)) (= x_296 1)) (= x_6 (store x_5 x_68 2))) (= x_62 (store x_49 x_52 x_68))) (and (and (and (and (and (and (and (and (and (= x_67 1) ?v_57) ?v_55) ?v_56) ?v_58) ?v_59) (= x_71 x_70)) (= x_297 2)) (= x_61 x_70)) (= x_6 (store x_5 x_70 3)))) (and (and (and (and (and (and (and (and (and (= x_67 2) ?v_57) (= x_63 (+ x_50 1))) ?v_56) ?v_58) ?v_59) (= x_73 x_72)) (= x_298 3)) (or (not (<= x_53 12)) (= x_61 x_72))) (= x_6 (store x_5 x_72 1)))) (and (and (and (and (and (= x_67 3) ?v_58) ?v_55) ?v_56) (= x_6 x_5)) ?v_59))) (= x_53 (+ x_40 1))) (= x_299 (select x_4 x_55))) (= x_300 (select x_4 x_57))) (= x_301 (select x_4 x_59))) (or (or (or (and (and (and (and (and (and (and (= x_54 0) (= x_52 (+ x_39 1))) ?v_60) ?v_61) (= x_56 x_55)) (= x_299 1)) (= x_5 (store x_4 x_55 2))) (= x_49 (store x_36 x_39 x_55))) (and (and (and (and (and (and (and (and (and (= x_54 1) ?v_62) ?v_60) ?v_61) ?v_63) ?v_64) (= x_58 x_57)) (= x_300 2)) (= x_48 x_57)) (= x_5 (store x_4 x_57 3)))) (and (and (and (and (and (and (and (and (and (= x_54 2) ?v_62) (= x_50 (+ x_37 1))) ?v_61) ?v_63) ?v_64) (= x_60 x_59)) (= x_301 3)) (or (not (<= x_40 12)) (= x_48 x_59))) (= x_5 (store x_4 x_59 1)))) (and (and (and (and (and (= x_54 3) ?v_63) ?v_60) ?v_61) (= x_5 x_4)) ?v_64))) (= x_40 (+ x_26 1))) (= x_302 (select x_3 x_42))) (= x_303 (select x_3 x_44))) (= x_304 (select x_3 x_46))) (or (or (or (and (and (and (and (and (and (and (= x_41 0) (= x_39 (+ x_24 1))) ?v_65) ?v_66) (= x_43 x_42)) (= x_302 1)) (= x_4 (store x_3 x_42 2))) (= x_36 (store x_20 x_24 x_42))) (and (and (and (and (and (and (and (and (and (= x_41 1) ?v_67) ?v_65) ?v_66) ?v_68) ?v_69) (= x_45 x_44)) (= x_303 2)) (= x_35 x_44)) (= x_4 (store x_3 x_44 3)))) (and (and (and (and (and (and (and (and (and (= x_41 2) ?v_67) (= x_37 (+ x_21 1))) ?v_66) ?v_68) ?v_69) (= x_47 x_46)) (= x_304 3)) (or (not (<= x_26 12)) (= x_35 x_46))) (= x_4 (store x_3 x_46 1)))) (and (and (and (and (and (= x_41 3) ?v_68) ?v_65) ?v_66) (= x_4 x_3)) ?v_69))) (= x_26 (+ x_27 1))) (= x_305 (select x_0 x_29))) (= x_306 (select x_0 x_31))) (= x_307 (select x_0 x_33))) (or (or (or (and (and (and (and (and (and (and (= x_28 0) (= x_24 (+ x_25 1))) ?v_70) ?v_71) (= x_30 x_29)) (= x_305 1)) (= x_3 (store x_0 x_29 2))) (= x_20 (store x_17 x_25 x_29))) (and (and (and (and (and (and (and (and (and (= x_28 1) ?v_72) ?v_70) ?v_71) ?v_73) ?v_74) (= x_32 x_31)) (= x_306 2)) (= x_19 x_31)) (= x_3 (store x_0 x_31 3)))) (and (and (and (and (and (and (and (and (and (= x_28 2) ?v_72) (= x_21 (+ x_18 1))) ?v_71) ?v_73) ?v_74) (= x_34 x_33)) (= x_307 3)) (or (not (<= x_27 12)) (= x_19 x_33))) (= x_3 (store x_0 x_33 1)))) (and (and (and (and (and (= x_28 3) ?v_73) ?v_70) ?v_71) (= x_3 x_0)) ?v_74))) (= x_308 (select x_213 x_1))) (= x_308 3)) (= x_309 (select x_213 x_2))) (= x_309 3))))
; --- Injected Array Sum Constraint ---
(assert (sum x_192 (+ x_60 (+ x_277 x_76))))
(assert (sum x_88 (+ x_47 (+ x_273 x_131))))
(assert (sum x_9 (+ x_189 (+ x_19 x_57))))
(check-sat)
(exit)